\ Generated by MPModelProtoExporter
\   Name             : 
\   Format           : Free
\   Constraints      : 36
\   Variables        : 56
\     Binary         : 56
\     Integer        : 0
\     Continuous     : 0
Maximize
 Obj: +9 X01 +3 X02 +1 X12 +4 X03 +7 X13 +4 X23 +2 X04 +3 X14 +4 X24 +1 X34 +1 X05 +5 X15 +2 X25 +5 X35 +8 X45 +5 X06 +2 X16 +9 X26 +5 X36 +7 X46 +2 X56 +6 X07 +1 X17 +2 X27 +2 X37 +6 X47 +3 X57 +4 X67 
Subject to
 consultant_0: +1 X01 +1 X02 +1 X03 +1 X04 +1 X05 +1 X06 +1 X07  = 1
 consultant_1: +1 X10 +1 X12 +1 X13 +1 X14 +1 X15 +1 X16 +1 X17  = 1
 consultant_2: +1 X20 +1 X21 +1 X23 +1 X24 +1 X25 +1 X26 +1 X27  = 1
 consultant_3: +1 X30 +1 X31 +1 X32 +1 X34 +1 X35 +1 X36 +1 X37  = 1
 consultant_4: +1 X40 +1 X41 +1 X42 +1 X43 +1 X45 +1 X46 +1 X47  = 1
 consultant_5: +1 X50 +1 X51 +1 X52 +1 X53 +1 X54 +1 X56 +1 X57  = 1
 consultant_6: +1 X60 +1 X61 +1 X62 +1 X63 +1 X64 +1 X65 +1 X67  = 1
 consultant_7: +1 X70 +1 X71 +1 X72 +1 X73 +1 X74 +1 X75 +1 X76  = 1
 x_0_1: -1 X10 +1 X01  = 0
 x_0_2: -1 X20 +1 X02  = 0
 x_0_3: -1 X30 +1 X03  = 0
 x_0_4: -1 X40 +1 X04  = 0
 x_0_5: -1 X50 +1 X05  = 0
 x_0_6: -1 X60 +1 X06  = 0
 x_0_7: -1 X70 +1 X07  = 0
 x_1_2: -1 X21 +1 X12  = 0
 x_1_3: -1 X31 +1 X13  = 0
 x_1_4: -1 X41 +1 X14  = 0
 x_1_5: -1 X51 +1 X15  = 0
 x_1_6: -1 X61 +1 X16  = 0
 x_1_7: -1 X71 +1 X17  = 0
 x_2_3: -1 X32 +1 X23  = 0
 x_2_4: -1 X42 +1 X24  = 0
 x_2_5: -1 X52 +1 X25  = 0
 x_2_6: -1 X62 +1 X26  = 0
 x_2_7: -1 X72 +1 X27  = 0
 x_3_4: -1 X43 +1 X34  = 0
 x_3_5: -1 X53 +1 X35  = 0
 x_3_6: -1 X63 +1 X36  = 0
 x_3_7: -1 X73 +1 X37  = 0
 x_4_5: -1 X54 +1 X45  = 0
 x_4_6: -1 X64 +1 X46  = 0
 x_4_7: -1 X74 +1 X47  = 0
 x_5_6: -1 X65 +1 X56  = 0
 x_5_7: -1 X75 +1 X57  = 0
 x_6_7: -1 X76 +1 X67  = 0
Bounds
 0 <= X10 <= 1
 0 <= X20 <= 1
 0 <= X30 <= 1
 0 <= X40 <= 1
 0 <= X50 <= 1
 0 <= X60 <= 1
 0 <= X70 <= 1
 0 <= X01 <= 1
 0 <= X21 <= 1
 0 <= X31 <= 1
 0 <= X41 <= 1
 0 <= X51 <= 1
 0 <= X61 <= 1
 0 <= X71 <= 1
 0 <= X02 <= 1
 0 <= X12 <= 1
 0 <= X32 <= 1
 0 <= X42 <= 1
 0 <= X52 <= 1
 0 <= X62 <= 1
 0 <= X72 <= 1
 0 <= X03 <= 1
 0 <= X13 <= 1
 0 <= X23 <= 1
 0 <= X43 <= 1
 0 <= X53 <= 1
 0 <= X63 <= 1
 0 <= X73 <= 1
 0 <= X04 <= 1
 0 <= X14 <= 1
 0 <= X24 <= 1
 0 <= X34 <= 1
 0 <= X54 <= 1
 0 <= X64 <= 1
 0 <= X74 <= 1
 0 <= X05 <= 1
 0 <= X15 <= 1
 0 <= X25 <= 1
 0 <= X35 <= 1
 0 <= X45 <= 1
 0 <= X65 <= 1
 0 <= X75 <= 1
 0 <= X06 <= 1
 0 <= X16 <= 1
 0 <= X26 <= 1
 0 <= X36 <= 1
 0 <= X46 <= 1
 0 <= X56 <= 1
 0 <= X76 <= 1
 0 <= X07 <= 1
 0 <= X17 <= 1
 0 <= X27 <= 1
 0 <= X37 <= 1
 0 <= X47 <= 1
 0 <= X57 <= 1
 0 <= X67 <= 1
Binaries
 X10
 X20
 X30
 X40
 X50
 X60
 X70
 X01
 X21
 X31
 X41
 X51
 X61
 X71
 X02
 X12
 X32
 X42
 X52
 X62
 X72
 X03
 X13
 X23
 X43
 X53
 X63
 X73
 X04
 X14
 X24
 X34
 X54
 X64
 X74
 X05
 X15
 X25
 X35
 X45
 X65
 X75
 X06
 X16
 X26
 X36
 X46
 X56
 X76
 X07
 X17
 X27
 X37
 X47
 X57
 X67
End
